71 65 66 67 68 70 69 124 138 137 139 140 141 151 150 149 152 148 147 142 143 144 146 145 157 158 136 135 134 133 132 131 130 129 128 127 125 126 117 116 115 114 110 111 112 113 161 168 162 160 159 156 155 153 154 163 167 166 164 165 203 204 202 201 200 199 198 208 207 206 205 197 196 195 194 209 210 211 212 213 214 215 216 217 223 224 222 221 220 218 219 193 192 191 190 226 225 189 227 228 229 230 231 533 532 531 489 488 534 535 487 486 490 529 530 233 232 234 235 236 237 509 510 511 528 527 512 513 514 515 516 517 522 523 521 520 519 518 495 494 524 525 526 491 492 493 475 476 477 478 479 480 481 482 483 485 484 536 537 539 538 540 176 177 178 187 188 186 185 184 183 182 179 181 180 169 171 170 172 175 174 173 108 109 107 542 541 543 544 547 546 545 548 549 562 563 564 565 566 567 568 20 19 569 570 474 473 472 471 470 469 468 467 466 460 459 461 462 463 464 465 496 497 498 502 503 504 506 507 508 302 301 303 304 306 305 307 505 308 309 310 501 500 499 452 453 440 441 446 447 448 449 450 451 311 312 313 318 319 320 321 317 316 314 315 374 373 372 370 369 368 365 367 366 329 328 327 326 325 324 323 322 297 298 299 300 241 242 243 240 239 238 246 247 245 244 248 249 250 251 252 254 253 255 256 257 260 261 259 258 262 263 264 265 266 267 271 272 269 268 270 296 295 294 293 291 292 273 274 275 290 289 288 276 277 278 279 282 281 280 287 286 285 284 283 334 335 336 337 338 339 333 332 331 330 340 341 342 343 344 345 346 364 363 362 347 348 349 350 351 415 416 414 413 352 353 354 355 357 358 359 361 360 401 402 403 400 399 398 397 407 408 406 405 404 409 356 412 411 410 418 417 419 420 421 422 423 424 425 426 427 428 429 430 432 437 438 436 435 434 433 431 382 383 384 385 386 387 388 389 390 392 391 393 394 371 396 395 375 376 377 378 379 380 381 445 444 443 442 439 454 455 456 457 458 2 3 4 1 0 5 573 571 572 6 7 8 17 18 9 10 11 16 15 14 13 12 23 22 21 24 25 26 27 28 29 31 30 32 36 37 38 35 33 34 561 560 559 558 557 41 40 39 42 44 43 49 48 47 46 45 555 556 554 553 552 550 551 101 100 99 98 102 103 104 105 106 118 121 122 123 120 119 95 96 97 94 93 91 92 90 87 89 88 77 78 62 79 80 81 86 85 84 51 50 52 54 53 55 56 83 82 57 58 59 60 61 63 64 76 75 74 73 72